
Gurobi 13.0.0 (linux64) logging started Fri Jan 16 03:50:22 2026

Set parameter LogFile to value "../experiments/network-n_50_s_2_rp_0-app_set-id_39_18_apps/submip_40_epr1_model_gurobi.log"
Set parameter TimeLimit to value 8.3907286107400432e+02
Gurobi Optimizer version 13.0.0 build v13.0.0rc1 (linux64 - "Ubuntu 24.04.3 LTS")

CPU model: Intel(R) Core(TM) Ultra 7 165H, instruction set [SSE2|AVX|AVX2]
Thread count: 22 physical cores, 22 logical processors, using up to 22 threads

Non-default parameters:
TimeLimit  8.3907286107400432e+02
LogToConsole  0

Academic license 2539022 - for non-commercial use only - registered to al___@studenti.unimi.it
Optimize a model with 26078 rows, 5850 columns and 60032 nonzeros (Min)
Model fingerprint: 0x3429c075
Model has 5850 linear objective coefficients
Model has 162 quadratic constraints
Variable types: 0 continuous, 5850 integer (5850 binary)
Coefficient statistics:
  Matrix range     [1e+00, 9e+02]
  QMatrix range    [6e+01, 2e+02]
  Objective range  [1e+01, 2e+02]
  Bounds range     [1e+00, 1e+00]
  RHS range        [1e+00, 1e+09]
  QRHS range       [1e+02, 6e+02]
Presolve removed 25673 rows and 4969 columns
Presolve time: 0.07s
Presolved: 6020 rows, 6341 columns, 37127 nonzeros
Variable types: 0 continuous, 6341 integer (6341 binary)

Root relaxation: objective 4.773022e+03, 1485 iterations, 0.08 seconds (0.11 work units)

    Nodes    |    Current Node    |     Objective Bounds      |     Work
 Expl Unexpl |  Obj  Depth IntInf | Incumbent    BestBd   Gap | It/Node Time

     0     0 4773.02239    0  163          - 4773.02239      -     -    0s
     0     0 5176.73479    0  194          - 5176.73479      -     -    0s
     0     0 infeasible    0               - infeasible      -     -    0s

Cutting planes:
  Gomory: 3
  Cover: 22
  Clique: 12
  MIR: 28
  Knapsack: 9
  StrongCG: 10
  GUB cover: 3
  Zero half: 7
  RLT: 64
  Relax-and-lift: 27
  BQP: 16

Explored 1 nodes (2679 simplex iterations) in 0.99 seconds (0.74 work units)
Thread count was 22 (of 22 available processors)

Solution count 0

Model is infeasible
Best objective -, best bound -, gap -

User-callback calls 886, time in user-callback 0.00 sec
